p tw 65 992
0 1
0 2
0 3
0 4
0 5
0 6
0 7
0 8
0 21
0 29
0 30
0 31
0 32
0 33
0 24
0 25
0 27
0 44
0 54
0 56
0 16
0 36
0 57
0 17
0 18
0 37
0 49
0 50
0 11
0 23
0 28
0 48
0 55
0 62
0 64
0 20
0 42
0 47
0 14
0 22
0 45
0 63
1 2
1 3
1 4
1 5
1 6
1 7
1 8
1 11
1 20
1 23
1 24
1 25
1 26
1 27
1 28
1 16
1 36
1 57
1 32
1 35
1 41
1 55
1 58
1 13
1 40
1 46
1 53
1 12
1 49
1 50
1 60
2 3
2 4
2 5
2 6
2 7
2 8
2 11
2 22
2 31
2 33
2 38
2 39
2 40
2 41
2 25
2 32
2 35
2 55
2 58
3 4
3 5
3 6
3 7
3 8
3 13
3 30
3 34
3 35
3 36
3 37
3 24
3 25
3 27
3 44
3 54
3 56
3 17
3 18
3 31
3 49
3 50
3 9
3 14
3 29
3 41
3 52
3 60
3 61
3 10
3 28
3 38
3 46
3 11
3 22
3 59
3 12
3 20
3 23
4 5
4 6
4 7
4 8
4 10
4 19
4 20
4 23
4 54
4 58
4 61
4 9
4 15
4 24
4 45
4 48
4 52
4 59
4 11
4 13
4 22
4 27
4 28
4 55
4 62
4 64
4 33
4 34
4 40
4 41
4 43
5 6
5 7
5 8
5 10
5 13
5 24
5 28
5 38
5 46
5 11
5 15
5 20
5 30
5 56
5 16
5 25
5 29
5 35
5 53
5 62
5 12
5 26
5 27
5 39
5 41
5 63
5 14
5 49
5 60
5 18
5 31
5 42
5 47
5 50
6 7
6 8
6 13
6 30
6 34
6 35
6 36
6 37
6 16
6 57
6 9
6 15
6 24
6 45
6 48
6 52
6 59
6 25
6 29
6 46
6 53
6 62
6 12
6 20
6 31
6 44
6 56
6 14
6 22
6 63
7 8
7 9
7 10
7 11
7 12
7 13
7 14
7 15
7 16
7 30
7 34
7 35
7 36
7 37
7 29
7 39
7 52
7 53
7 55
7 28
7 40
7 46
7 24
7 38
7 45
7 54
7 61
8 25
8 32
8 35
8 41
8 55
8 58
8 11
8 13
8 28
8 40
8 46
8 53
8 14
8 21
8 22
8 26
8 27
8 52
8 59
8 30
8 49
8 60
9 10
9 11
9 12
9 13
9 14
9 15
9 16
9 29
9 41
9 52
9 54
9 60
9 61
9 24
9 45
9 48
9 59
9 23
9 27
9 49
9 62
10 11
10 12
10 13
10 14
10 15
10 16
10 29
10 37
10 39
10 52
10 53
10 55
10 19
10 20
10 23
10 54
10 58
10 61
10 21
10 35
10 38
10 43
10 49
10 56
10 28
10 30
10 33
10 41
10 45
10 24
10 46
10 27
10 62
10 26
10 63
10 34
10 44
10 48
10 40
11 12
11 13
11 14
11 15
11 16
11 20
11 23
11 24
11 25
11 26
11 27
11 28
11 22
11 31
11 33
11 38
11 39
11 40
11 41
11 46
11 53
11 30
11 56
11 21
11 55
11 52
11 59
11 48
11 62
11 64
11 18
11 32
11 44
11 47
11 60
11 43
11 45
12 13
12 14
12 15
12 16
12 17
12 18
12 19
12 20
12 21
12 22
12 29
12 37
12 39
12 52
12 53
12 55
12 26
12 34
12 35
12 41
12 23
12 27
12 49
12 62
12 46
12 63
12 31
12 44
12 56
12 57
12 28
12 50
12 60
12 30
12 32
12 47
13 14
13 15
13 16
13 17
13 18
13 19
13 20
13 21
13 22
13 30
13 34
13 35
13 36
13 37
13 25
13 32
13 42
13 43
13 44
13 45
13 28
13 40
13 46
13 53
13 24
13 38
13 26
13 48
13 27
13 52
13 59
13 49
13 60
13 29
13 54
13 61
14 15
14 16
14 28
14 32
14 46
14 47
14 48
14 49
14 50
14 51
14 19
14 21
14 35
14 38
14 43
14 56
14 29
14 41
14 52
14 54
14 60
14 61
14 22
14 26
14 27
14 55
14 30
14 45
14 63
15 16
15 23
15 24
15 29
15 35
15 49
15 52
15 53
15 54
15 45
15 48
15 59
15 26
15 34
15 37
15 41
15 20
15 30
15 56
16 36
16 57
16 25
16 29
16 35
16 46
16 53
16 62
16 20
16 28
16 43
16 45
16 22
16 63
17 18
17 19
17 20
17 21
17 22
17 25
17 30
17 32
17 42
17 43
17 44
17 45
17 27
17 29
17 31
17 36
17 47
17 51
17 59
17 60
17 37
17 49
17 50
18 19
18 20
18 21
18 22
18 30
18 31
18 37
18 49
18 50
18 26
18 29
18 32
18 38
18 47
18 27
18 42
18 44
18 60
19 20
19 21
19 22
19 23
19 54
19 58
19 61
19 35
19 38
19 43
19 49
19 56
20 21
20 22
20 23
20 24
20 25
20 26
20 27
20 28
20 54
20 58
20 61
20 30
20 56
20 31
20 37
20 44
20 57
20 49
20 50
20 60
20 42
20 47
20 43
20 45
20 62
21 22
21 29
21 30
21 31
21 32
21 33
21 35
21 38
21 43
21 49
21 56
21 26
21 27
21 55
22 31
22 33
22 38
22 39
22 40
22 41
22 26
22 27
22 55
22 52
22 59
22 29
22 32
22 37
22 47
22 45
22 63
23 24
23 25
23 26
23 27
23 28
23 29
23 35
23 49
23 52
23 53
23 54
23 58
23 61
23 62
23 50
23 60
23 48
23 55
23 64
23 33
23 34
23 40
23 41
23 43
24 25
24 26
24 27
24 28
24 29
24 35
24 49
24 52
24 53
24 54
24 44
24 56
24 45
24 48
24 59
24 38
24 46
24 34
25 26
25 27
25 28
25 30
25 32
25 42
25 43
25 44
25 45
25 54
25 56
25 35
25 41
25 55
25 58
25 29
25 46
25 53
25 62
26 27
26 28
26 34
26 35
26 37
26 41
26 39
26 46
26 63
26 55
26 44
26 48
26 53
26 29
26 32
26 38
26 47
27 28
27 44
27 54
27 56
27 29
27 31
27 36
27 47
27 51
27 59
27 60
27 49
27 62
27 39
27 41
27 46
27 63
27 55
27 52
27 42
27 50
27 30
27 32
28 32
28 46
28 47
28 48
28 49
28 50
28 51
28 40
28 53
28 30
28 33
28 41
28 43
28 45
28 38
28 60
28 55
28 62
28 64
29 30
29 31
29 32
29 33
29 35
29 49
29 52
29 53
29 54
29 37
29 39
29 55
29 36
29 47
29 51
29 59
29 60
29 41
29 61
29 46
29 62
29 38
29 40
29 45
30 31
30 32
30 33
30 34
30 35
30 36
30 37
30 42
30 43
30 44
30 45
30 49
30 50
30 41
30 56
30 46
30 60
30 40
30 54
30 61
30 47
31 32
31 33
31 38
31 39
31 40
31 41
31 36
31 47
31 51
31 59
31 60
31 37
31 49
31 50
31 44
31 56
31 57
31 42
32 33
32 42
32 43
32 44
32 45
32 46
32 47
32 48
32 49
32 50
32 51
32 35
32 41
32 55
32 58
32 37
32 38
32 60
33 38
33 39
33 40
33 41
33 43
33 45
33 49
33 34
33 48
33 55
34 35
34 36
34 37
34 41
34 44
34 46
34 48
34 53
34 40
34 43
34 55
35 36
35 37
35 49
35 52
35 53
35 54
35 41
35 55
35 58
35 38
35 43
35 56
35 46
35 62
35 60
36 37
36 57
36 47
36 51
36 59
36 60
37 39
37 52
37 53
37 55
37 49
37 50
37 41
37 44
37 56
37 57
37 38
37 47
38 39
38 40
38 41
38 43
38 49
38 56
38 46
38 47
39 40
39 41
39 52
39 53
39 55
39 46
39 63
40 41
40 46
40 53
40 43
40 48
40 55
40 45
40 54
40 61
41 55
41 58
41 52
41 54
41 60
41 61
41 43
41 45
41 49
41 46
41 63
41 48
42 43
42 44
42 45
42 47
42 50
43 44
43 45
43 49
43 56
43 48
43 55
43 62
44 45
44 54
44 56
44 46
44 48
44 53
44 57
44 47
44 60
45 48
45 52
45 59
45 49
45 54
45 61
45 62
45 63
46 47
46 48
46 49
46 50
46 51
46 53
46 62
46 63
46 60
47 48
47 49
47 50
47 51
47 59
47 60
48 49
48 50
48 51
48 52
48 59
48 53
48 55
48 62
48 64
49 50
49 51
49 52
49 53
49 54
49 56
49 62
49 60
50 51
50 60
51 59
51 60
52 53
52 54
52 55
52 60
52 61
52 59
53 54
53 55
53 62
54 56
54 58
54 61
54 60
55 58
55 62
55 64
56 57
58 61
59 60
60 61
62 64
